language Essence 1.3

letting class be
        function(1 --> 4, 2 --> 9, 3 --> 4, 4 --> 4, 5 --> 9, 6 --> 5, 7 --> 10, 8 --> 6, 9 --> 1, 10 --> 10, 11 --> 9,
                 12 --> 7, 13 --> 6, 14 --> 3, 15 --> 8, 16 --> 2, 17 --> 10, 18 --> 6, 19 --> 3, 20 --> 9, 21 --> 7,
                 22 --> 3, 23 --> 3, 24 --> 9, 25 --> 5, 26 --> 9, 27 --> 5)
letting deck_length be 87
letting deck_width be 33
letting length be
        function(1 --> 1, 2 --> 1, 3 --> 4, 4 --> 1, 5 --> 28, 6 --> 1, 7 --> 1, 8 --> 8, 9 --> 3, 10 --> 1, 11 --> 1,
                 12 --> 1, 13 --> 1, 14 --> 7, 15 --> 1, 16 --> 1, 17 --> 1, 18 --> 1, 19 --> 1, 20 --> 1, 21 --> 1,
                 22 --> 1, 23 --> 1, 24 --> 1, 25 --> 1, 26 --> 2, 27 --> 1)
letting n_classes be 10
letting n_containers be 27
letting separation be function()
letting width be
        function(1 --> 15, 2 --> 6, 3 --> 26, 4 --> 21, 5 --> 29, 6 --> 6, 7 --> 2, 8 --> 30, 9 --> 28, 10 --> 9,
                 11 --> 13, 12 --> 13, 13 --> 12, 14 --> 32, 15 --> 28, 16 --> 23, 17 --> 23, 18 --> 8, 19 --> 19,
                 20 --> 19, 21 --> 1, 22 --> 17, 23 --> 26, 24 --> 7, 25 --> 2, 26 --> 17, 27 --> 12)
